[LangOptions]
;LanguageName=Rus
LanguageID=$0419
LanguageCodePage=1251
Translator=

[Common]
BtnOk=Да
BtnSave=Сохранить
BtnCancel=Отмена
BtnClose=Закрыть
BtnCol=Выб
BtnBCol=Цв
BtnAuto=Авто
BtnSel=...
BtnDel=X
BtnLeft=<-
BtnRight=->

[ConfigDlg]
Title=Lada Player Конфигурация
TabLadaPlayer=О нас
TabMain=Главная
TabExecute=Исполняемые
TabFolder=Папки
TabResolution=Экран
TabSkin=Оформление
TabGPS=GPS
TabEtc=Разное
TabLadaPLR=О нас
TabWolfNCU=NCU

[ConfigAboutDlg]
Version=Версия:
Programmer=Программист:
Homepage=Сайт:

[ConfigMainDlg]
AutoRunLabel=Автозапуск:
AutoRunNavigation=Навигация
AutoRunViewer=Слайдшоу
AutoRunDelayLabel=Задержка автозапуска:
AutoRunDelaySecond=Сек
AutoRunToolbarLabel=Автозапуск Toolbar:
AutoRunToolbar=Вкл
AutoWindowModeLabel=Авторежим Окна:
AutoWindowMode=Вкл
StartupShowTaskbarLabel=Taskbar при старте:
StartupShowTaskbar=Да
ExitShowTaskbarLabel=Taskbar при выходе:
ExittShowTaskbar=Да
QuickIconLabel=Иконка Quick:
QuickIcon=Да
QuickButtonLabel=Кнопка Quick:
QuickButton=Да
CpuUsageLabel=CPU Usage:
CpuUsage=Use
MemoryUsageLabel=Memory Usage:
MemoryUsage=Use

[ConfigProgDlg]
NavigationLabel=Нави:
ToolbarLabel=Toolbar:
MovieLabel=Видео:
Mp3Label=MP3:
FlashLabel=Флеш:
DmbLabel=DMB:

[ConfigFolderDlg]
ApplicationFolder=Папка Программ
GameFolder=папка Игр
SystemFolder=Папка Система
FlashFolder=Папка Флеш
MovieFolder=Папка Видео
Mp3Folder=Папка Mp3
ImageFolder=Папка Фото
ApplicationLabel=Програм:
GameLabel=Игры:
SystemLabel=Система:
FlashLabel=Флеш:
MovieLabel=Видео:
Mp3Label=Mp3:
ImageLabel=Фото:

[ConfigScreenDlg]
ScreenModeLabel=Режим:
CustomLabel=Настр:
NoticeLabel=Примечание:
Notice=Новое разрешение будет использовано при следующем старте
FitSize=Подгон
CustomSize=Настр.
ChooseSize=Выбрать

[ConfigSkinDlg]
SkinFolder=Папка скинов
SkinFolderLabel=Папка:
SkinNameLabel=Имя скина:
AutoChangeBackgrLabel=Изм.фона:
AutoChange=Авто
ChangeDelayLabel=Задержка:
DelaySecond=Сек
ScreenShot=Снимок экрана
EditSkinLabel=Редактор:
EditSkin=Начать редактирование
OptimizationLabel=Оптимизац:
HighSpec=Выс.Произ.
LowSpec=Низ.Произ.

[ConfigGpsDlg]
GpsPortLabel=Gps порт:
GpsSpeedLabel=Gps скорость:
GpsEmulationLabel=Gps эмуляция:
GpsEmulation=Вкл
SirfModeLabel=Режим Sirf:
SirfToNmea=Sirf -> NMEA
AutoGpsTimeLabel=Авто время по Gps:
AutoGpsTime=Вкл
AutoGpsGaugeLabel=Скорость по Gps:
AutoGpsGauge=Вкл
DisconForNaviLabel=Gps Откл:
DisconForNavi=Откл GPS при исп. NAVI
StopBitLabel=Gps Stop Bit:
OneStopBit=Один
TwoStopBits=Два(по умолч.)
FindGPS=Поиск GPS

[ConfigEtcDlg]
LogoImageLabel=Логотип:
LogoDisplayTimeLabel=Время логотипа:
ChangeDelayLabel=Задержка:
AutoMoviePlayLabel=Автовоспроизведение фильма:
MovieFullScreenLabel=Полный экран:
MovieAutoPlayLabel=Автозапуск плеера:
ImageViewerGroup=Image Viewer
MusicPlayerGroup=Music Player
AutoPlayLabel=Auto Music Play:
DelayTimeLabel=Delay Time:
AutoStopPlayLabel=Stop Music when running:

[AutoRunDlg]
AutoRunNavigation=Автозапуск навигации:
AutoRunImageViewer=Автозапуск просмотра изображений:

[ProgRunDlg]
DeleteMessage=Выберите элемент для удаления.

[ExitMenuDlg]
HidingLabel=Скрыть
Exit=Выход
Hide1=30 Сек
Hide2=1 Мин
Hide3=3 Мин
Cancel=Отмена

[BackgroundDlg]
Title=Фон
LogoColorLabel=Цвет логотипа:
WhiteColor=Белый
BlackColor=Черный

[ChooseFileDlg]
Title=Выбор файла
SelectAll=Все
SelectNotAll=Ничего
PrevPage=Пред.стр.
NextPage=След.стр.

[ScreenSizeDlg]
Title=Выбор разрешения
ResolutionLabel=Разрешение
Auto=Авто
UserDefine=Задать вручную
WidthLabel=Ширина:
HeightLabel=Высота:

[ChooseSkinDlg]
Title=Выбор скина

[TaskManDlg]
Title=Менеджер задач
TaskCloseButton=Закрыть задачу
TaskSwitchButton=Переключение задач
TopmostButton=Наверху
NonTopmostButton=Внизу

[EditSkinDlg]
Title=Редактирование скина
SkinNameLabel=Имя скина:
BackgroundImageLabel=Фон:
ImageSizeLabel=Размер:
FitSize=Подогнать
DefaultFontLabel=Шрифт:

[EditButtonDlg]
Title=Редактировать кнопку
TabFunction=Функция
TabPosition=Поз
TabImage1=Изобр1
TabImage2=Изобр2
TabFont=Шрифт
TabWave=Звук
ChooseLabel=Выбор:

[SelActionDlg]
ActionLabel=Действие:
MotionLabel=Движение:
ShowLabel=Показ:
Visible=Видимость
BorderLabel=Border:
Border=

[EditPositionDlg]
StepLabel=Шаг:
PositionLabel=Позиц:
SizeLabel=Размер:
AutoLabel=Авто:

[SelImageDlg]
UpLabel=Вверх:
DownLabel=Вниз:
TransColorLabel=Цвет:

[SelImage2Dlg]
RegionLabel=RG:

[SelFontDlg]
CaptionLabel=Текст:
FontLabel=Шрифт:
HorizontalAlignLabel=Гор.Выр
AlignLabel=Выр

[SelWaveDlg]
WaveFileLabel=Файл:
PlayButton=Воспроизвести

[ChooseFontDlg]
Title=Выбор шрифты
FontNameLabel=Шрифт:
FontSizeLabel=Размер:
FontStyleLabel=Стиль:
FontBold=Жирный
FontItalic=Курсив
FontUnderline=Подстрочный
PreviewLabel=Предпросмотр:
SampleText=Пример

[ShortMessage]
TitleInformation=Информация
TitleWarning=Предупреждение
TitleQuestion=Вопрос
TitleError=Ошибка
Navigation=Навигация
ImageViewer=Фото
Mp3=MP3
Movie=Видео

[Message]
MSG001=Выберите [%1s] путь из окна конфигурации.
MSG002=Выберите [%1s] программу из окна конфигурации.
MSG003=Выбранный [%1s] файл не существует.
MSG004=Программа не выбрана.
MSG005=Папка картинок, файл не указан.
MSG006=Не найден [%1s] файл.
MSG007=Вы действительно хотите удалить [%1s] пункт?
MSG008=[%s] ошибка во время уделения.
MSG009=Пожалуйста выберите файл скина.
MSG010=Сохранить ваш скин?
MSG011=Папка скинов не найдена.
MSG012=Файл скина не найден.
MSG013=Закройте окно редактирования кнопок.
MSG014=[%1s] превышено доступное число кнопок.
MSG015=Разрешение менее 272 x 200 не может быть установлено.
MSG016=%1s x %2s большее разрешение не может быть установлено.
MSG017=Выйти без сохранения?
MSG018=Установить программу на верхний уровень? Установка поверх полноэкранного окна может скрыть панель инструментов.
MSG019=[%1s] команда движения - неизвестный код.
MSG020=[%1s] команда действия - неизвестный код.
MSG021=Режим окна для активации благодарностей?
MSG022=ПК не поддержвает данную возможность.
MSG023=Это автоматически %1s %2s сек после запуска.
MSG024=GPS установлен в режим эмуляции. Доступно удаление из настроек.
MSG025=[%1s] отображение файлов изображений недоступно.
MSG026=[%1s] Папка не существует. Хотите продолжить после создания папки?
MSG027=Выберите порт для соединения.
MSG028=Неправильный GPS-порт.
MSG029=[%1s] Порт установлен.

[QuickMenu]
AddOnsMenu=Дополнения
RunMenu=Запуск Программ
ChooseMenu=Выбрать и Запустить
MusicMenu=Музыка
VolumeMenu=Громкость
BgndMenu=Фон
SkinMenu=Оформление
Config=Конфигурация
Exit=Выход
Close=Закрыть
TopMenu=Главное Меню
Imageviewer=Слайдшоу
Taskman=Task Manager
Taskbar=Taskbar
Calendar=Календарь
Clock=Часы
GpsTime=Получить GPS-время
GpsSpeed=Спидометр Вкл/Выкл
Navigation=навигация
Toolbar=Toolbar
Movie=Видео
Music=Музыка
Flash=Флеш
Dmb=Dmb
SelectMovie=Файл Видео
SelectMusic=Музыкальный Файл
SelectFlash=Флеш Файл
SelectAppl=Приложения
SelectGame=Игры
SelectSystem=Система
MusicPlayer=Музыкальный Плейер
MusicChoose=Выбор Музыки
MusicPlayPause=Музыка Проигр/Пауза
MusicStop=Музыка Стоп
MusicPrev=Музыка Пред
MusicNext=Музыка След
MusicExit=Музыка Выход
VolumeControl=Управление Громкостью
VolumeUp=Громче
VolumeDown=тише
BgndChange=Сменить Фон
BgndPrev=Фон Предыдущий
BgndNext=Фон Следующий
SkinEdit=Редактор Оформления
SkinChange=Сменить Оформление
MusicRepeat=Repeat Mode
